c description: Total graph ordering principle (compact representation) on 
c generator: CNFgen (0.9.0)
c copyright: (C) 2012-2020 Massimo Lauria <massimo.lauria@uniroma1.it>
c url: https://massimolauria.net/cnfgen
c
p cnf 10 24
-3 -4 0
-6 0
-8 0
3 6 8 -10 0
1 5 -2 0
-1 -5 2 0
1 6 -3 0
-1 -6 3 0
1 7 -4 0
-1 -7 4 0
2 8 -3 0
-2 -8 3 0
2 9 -4 0
-2 -9 4 0
3 10 -4 0
-3 -10 4 0
5 8 -6 0
-5 -8 6 0
5 9 -7 0
-5 -9 7 0
6 10 -7 0
-6 -10 7 0
8 10 -9 0
-8 -10 9 0